c Sudoku solution
p cnf 729 0
126 0
135 0
183 0
214 0
237 0
288 0
338 0
367 0
391 0
422 0
461 0
536 0
548 0
619 0
666 0
763 0
817 0
856 0
874 0
881 0
921 0
111 0
312 0
571 0
631 0
934 0
433 0
515 0
418 0
913 0
716 0
893 0
673 0
698 0
553 0
968 0
828 0
725 0
778 0
158 0
999 0
754 0
741 0
739 0
832 0
251 0
849 0
865 0
295 0
496 0
787 0
792 0
594 0
477 0
444 0
527 0
624 0
142 0
269 0
164 0
355 0
272 0
197 0
384 0
376 0
179 0
246 0
343 0
223 0
329 0
947 0
952 0
645 0
459 0
657 0
562 0
485 0
682 0
589 0
975 0
986 0
